303319
303319
303319
303319
303319
298397
298397
293924
293924
291722
291722
289879
289077
289077
288981
288981
276318
276318
276318
276318
276318
276318
276318
276318
276318
276318
273150
273150
273150
273150
273150
273150
271012
266635
259228
259228
259228
259228
259228
259228
259228
259228
259228
259228
259228
259228
259228
259228
259228
259228
259228
259228
259228
259228
256204
256204
256204
256204
256204
255897
255897
255897
248395
248395
248395
248395
248395
248395
248395
248395
248395
248395
247926
247926
247926
247926
247926
247926
247699
237634
237634
237634
237634
237634
237634
237634
237634
237634
237634
237634
237634
236010
236010
236010
236010
236010
236010
236010
236010
236010
